NAME: cuum470.tsp
TYPE: TSP
COMMENT: User-generated TSP file
DIMENSION: 470
EDGE_WEIGHT_TYPE: EUC_2D
NODE_COORD_SECTION
1 344.0 110.0
2 39.0 426.0
3 405.0 184.0
4 354.0 218.0
5 379.0 105.0
6 385.0 279.0
7 425.0 444.0
8 384.0 147.0
9 277.0 266.0
10 51.0 387.0
11 98.0 28.0
12 128.0 3.0
13 254.0 160.0
14 342.0 205.0
15 124.0 362.0
16 144.0 218.0
17 400.0 184.0
18 171.0 420.0
19 424.0 13.0
20 231.0 35.0
21 273.0 428.0
22 259.0 27.0
23 79.0 346.0
24 233.0 263.0
25 201.0 405.0
26 191.0 6.0
27 148.0 289.0
28 145.0 412.0
29 254.0 293.0
30 12.0 254.0
31 43.0 299.0
32 13.0 98.0
33 353.0 18.0
34 447.0 94.0
35 45.0 324.0
36 92.0 320.0
37 4.0 305.0
38 42.0 168.0
39 153.0 23.0
40 283.0 193.0
41 213.0 403.0
42 165.0 164.0
43 195.0 214.0
44 361.0 66.0
45 405.0 101.0
46 446.0 432.0
47 98.0 306.0
48 140.0 38.0
49 231.0 290.0
50 160.0 92.0
51 205.0 93.0
52 364.0 46.0
53 359.0 342.0
54 196.0 118.0
55 84.0 375.0
56 340.0 129.0
57 445.0 127.0
58 199.0 410.0
59 282.0 355.0
60 152.0 398.0
61 381.0 87.0
62 364.0 26.0
63 466.0 468.0
64 244.0 305.0
65 262.0 8.0
66 375.0 302.0
67 143.0 147.0
68 341.0 73.0
69 354.0 273.0
70 346.0 200.0
71 363.0 340.0
72 296.0 18.0
73 342.0 306.0
74 242.0 283.0
75 326.0 446.0
76 199.0 436.0
77 444.0 76.0
78 379.0 389.0
79 103.0 340.0
80 42.0 215.0
81 299.0 198.0
82 191.0 455.0
83 228.0 181.0
84 343.0 107.0
85 468.0 105.0
86 230.0 45.0
87 350.0 203.0
88 305.0 327.0
89 247.0 216.0
90 328.0 324.0
91 229.0 460.0
92 336.0 46.0
93 255.0 405.0
94 345.0 281.0
95 212.0 347.0
96 279.0 347.0
97 285.0 301.0
98 177.0 43.0
99 231.0 314.0
100 369.0 263.0
101 101.0 246.0
102 112.0 136.0
103 406.0 34.0
104 170.0 295.0
105 166.0 324.0
106 366.0 175.0
107 267.0 102.0
108 169.0 75.0
109 21.0 124.0
110 421.0 243.0
111 414.0 116.0
112 375.0 248.0
113 49.0 55.0
114 397.0 292.0
115 291.0 108.0
116 243.0 386.0
117 204.0 265.0
118 289.0 219.0
119 358.0 180.0
120 243.0 137.0
121 384.0 295.0
122 90.0 271.0
123 257.0 160.0
124 24.0 101.0
125 222.0 316.0
126 190.0 39.0
127 438.0 7.0
128 204.0 151.0
129 315.0 372.0
130 298.0 4.0
131 193.0 405.0
132 325.0 43.0
133 411.0 61.0
134 221.0 336.0
135 157.0 458.0
136 57.0 396.0
137 441.0 107.0
138 165.0 162.0
139 143.0 145.0
140 46.0 58.0
141 22.0 282.0
142 135.0 156.0
143 218.0 316.0
144 151.0 283.0
145 294.0 337.0
146 291.0 379.0
147 187.0 329.0
148 40.0 25.0
149 387.0 282.0
150 162.0 198.0
151 188.0 369.0
152 213.0 55.0
153 151.0 190.0
154 236.0 332.0
155 333.0 374.0
156 115.0 226.0
157 461.0 256.0
158 325.0 116.0
159 25.0 195.0
160 464.0 61.0
161 385.0 274.0
162 394.0 414.0
163 145.0 256.0
164 134.0 93.0
165 264.0 393.0
166 304.0 154.0
167 360.0 221.0
168 310.0 6.0
169 427.0 413.0
170 305.0 468.0
171 393.0 80.0
172 160.0 148.0
173 374.0 52.0
174 150.0 291.0
175 294.0 274.0
176 92.0 77.0
177 326.0 438.0
178 225.0 137.0
179 54.0 131.0
180 28.0 306.0
181 350.0 61.0
182 72.0 187.0
183 149.0 93.0
184 197.0 14.0
185 300.0 36.0
186 285.0 426.0
187 402.0 64.0
188 170.0 355.0
189 440.0 311.0
190 287.0 18.0
191 435.0 77.0
192 192.0 438.0
193 186.0 313.0
194 404.0 357.0
195 9.0 6.0
196 244.0 381.0
197 166.0 469.0
198 114.0 256.0
199 128.0 112.0
200 165.0 272.0
201 339.0 195.0
202 374.0 192.0
203 119.0 430.0
204 402.0 107.0
205 200.0 34.0
206 407.0 304.0
207 222.0 18.0
208 229.0 445.0
209 197.0 94.0
210 424.0 235.0
211 309.0 436.0
212 236.0 429.0
213 224.0 206.0
214 26.0 151.0
215 8.0 223.0
216 340.0 147.0
217 448.0 21.0
218 173.0 211.0
219 459.0 232.0
220 98.0 209.0
221 110.0 407.0
222 32.0 289.0
223 42.0 318.0
224 393.0 348.0
225 301.0 109.0
226 430.0 93.0
227 44.0 239.0
228 390.0 120.0
229 148.0 85.0
230 339.0 207.0
231 460.0 200.0
232 94.0 356.0
233 201.0 419.0
234 443.0 405.0
235 120.0 345.0
236 147.0 172.0
237 174.0 179.0
238 6.0 199.0
239 405.0 155.0
240 193.0 257.0
241 135.0 462.0
242 138.0 379.0
243 274.0 323.0
244 360.0 415.0
245 8.0 92.0
246 301.0 92.0
247 285.0 399.0
248 26.0 336.0
249 87.0 341.0
250 137.0 469.0
251 89.0 246.0
252 232.0 346.0
253 26.0 103.0
254 453.0 198.0
255 276.0 321.0
256 432.0 309.0
257 130.0 357.0
258 56.0 132.0
259 208.0 384.0
260 234.0 80.0
261 248.0 192.0
262 188.0 360.0
263 156.0 299.0
264 402.0 150.0
265 313.0 272.0
266 231.0 23.0
267 294.0 422.0
268 323.0 380.0
269 177.0 89.0
270 80.0 194.0
271 122.0 241.0
272 386.0 343.0
273 130.0 466.0
274 359.0 296.0
275 109.0 62.0
276 133.0 62.0
277 53.0 214.0
278 270.0 24.0
279 436.0 80.0
280 408.0 5.0
281 253.0 276.0
282 32.0 61.0
283 218.0 79.0
284 339.0 461.0
285 220.0 13.0
286 195.0 190.0
287 470.0 168.0
288 306.0 250.0
289 338.0 287.0
290 378.0 405.0
291 21.0 187.0
292 66.0 327.0
293 137.0 350.0
294 249.0 77.0
295 164.0 126.0
296 371.0 274.0
297 314.0 314.0
298 29.0 260.0
299 155.0 348.0
300 219.0 85.0
301 356.0 206.0
302 182.0 458.0
303 378.0 143.0
304 1.0 393.0
305 228.0 82.0
306 121.0 187.0
307 372.0 455.0
308 448.0 67.0
309 413.0 204.0
310 205.0 196.0
311 283.0 421.0
312 286.0 221.0
313 467.0 70.0
314 72.0 365.0
315 377.0 372.0
316 24.0 457.0
317 392.0 279.0
318 380.0 381.0
319 174.0 349.0
320 253.0 167.0
321 338.0 58.0
322 4.0 281.0
323 301.0 284.0
324 253.0 385.0
325 79.0 85.0
326 172.0 273.0
327 416.0 55.0
328 290.0 402.0
329 462.0 409.0
330 455.0 455.0
331 385.0 324.0
332 374.0 444.0
333 354.0 107.0
334 424.0 132.0
335 370.0 424.0
336 329.0 83.0
337 187.0 126.0
338 82.0 431.0
339 157.0 213.0
340 83.0 400.0
341 437.0 123.0
342 76.0 104.0
343 375.0 271.0
344 76.0 124.0
345 413.0 68.0
346 283.0 284.0
347 237.0 381.0
348 431.0 411.0
349 228.0 318.0
350 216.0 72.0
351 138.0 33.0
352 72.0 468.0
353 432.0 126.0
354 405.0 377.0
355 375.0 246.0
356 98.0 280.0
357 317.0 352.0
358 442.0 97.0
359 206.0 308.0
360 330.0 345.0
361 156.0 260.0
362 164.0 417.0
363 34.0 9.0
364 39.0 399.0
365 349.0 331.0
366 422.0 248.0
367 297.0 351.0
368 108.0 163.0
369 119.0 207.0
370 151.0 184.0
371 13.0 259.0
372 232.0 398.0
373 151.0 403.0
374 420.0 74.0
375 328.0 250.0
376 404.0 377.0
377 316.0 240.0
378 130.0 285.0
379 405.0 402.0
380 384.0 113.0
381 448.0 51.0
382 104.0 340.0
383 128.0 238.0
384 3.0 319.0
385 229.0 464.0
386 465.0 414.0
387 398.0 106.0
388 55.0 85.0
389 326.0 205.0
390 5.0 280.0
391 262.0 371.0
392 154.0 202.0
393 260.0 289.0
394 62.0 115.0
395 430.0 252.0
396 55.0 120.0
397 214.0 308.0
398 232.0 152.0
399 385.0 103.0
400 400.0 368.0
401 219.0 367.0
402 342.0 339.0
403 326.0 459.0
404 239.0 470.0
405 140.0 369.0
406 322.0 347.0
407 191.0 469.0
408 105.0 13.0
409 222.0 81.0
410 354.0 84.0
411 155.0 414.0
412 190.0 110.0
413 349.0 432.0
414 156.0 36.0
415 456.0 140.0
416 41.0 365.0
417 146.0 440.0
418 221.0 432.0
419 438.0 46.0
420 14.0 360.0
421 318.0 406.0
422 462.0 329.0
423 267.0 33.0
424 333.0 346.0
425 464.0 6.0
426 12.0 361.0
427 98.0 123.0
428 274.0 375.0
429 398.0 333.0
430 112.0 231.0
431 443.0 262.0
432 354.0 393.0
433 63.0 447.0
434 120.0 267.0
435 119.0 78.0
436 404.0 292.0
437 259.0 148.0
438 144.0 73.0
439 439.0 284.0
440 81.0 401.0
441 361.0 343.0
442 191.0 439.0
443 92.0 377.0
444 187.0 44.0
445 57.0 434.0
446 165.0 365.0
447 428.0 385.0
448 259.0 230.0
449 260.0 424.0
450 378.0 193.0
451 55.0 105.0
452 286.0 111.0
453 282.0 446.0
454 43.0 19.0
455 176.0 440.0
456 363.0 366.0
457 244.0 241.0
458 427.0 224.0
459 2.0 407.0
460 122.0 185.0
461 345.0 106.0
462 325.0 57.0
463 175.0 395.0
464 123.0 272.0
465 68.0 305.0
466 101.0 319.0
467 338.0 220.0
468 247.0 427.0
469 280.0 87.0
470 169.0 225.0
EOF





